
  22    4
  10   10   10   10

   0   0   0   0   0   5 2 3 4 5 6 
   1  10  10  10  10   6 13 12 11 9 8 7 
   5  10  10  10  10   5 21 13 12 9 8 
   5  10  10  10  10   5 21 13 12 10 9 
   8  10  10  10  10   3 12 9 7 
   6  10  10  10  10   4 21 12 10 9 
   1  10  10  10  10   4 20 18 14 10 
   6  10  10  10  10   3 20 18 10 
   4  10  10  10  10   4 19 18 17 14 
  10  10  10  10  10   3 19 17 15 
   4  10  10  10  10   3 19 18 17 
   1  10  10  10  10   2 18 17 
   7  10  10  10  10   2 20 16 
   9  10  10  10  10   1 15 
   8  10  10  10  10   1 16 
   4  10  10  10  10   1 22
   8  10  10  10  10   1 22
   4  10  10  10  10   1 22
  10  10  10  10  10   1 22
   4  10  10  10  10   1 22
   1  10  10  10  10   1 22
   0   0   0   0   0   0 
